(declare-const S String)
(assert (str.in.re S (re.++ (str.to.re "DDDDDDQQQQQQ") re.allchar)))
(assert (not (str.in.re S (re.++ (re.++ (re.++ (str.to.re "DDDDDD") re.allchar) (str.to.re "QQQQQQ")) re.allchar))))
(check-sat)
(get-model)
